c n orig vars 84
p cnf 304 916
85 -1 0
85 -2 0
-85 1 2 0
86 -3 0
86 -4 0
-86 3 4 0
87 -5 0
87 -6 0
-87 5 6 0
88 -7 0
88 -8 0
-88 7 8 0
89 -9 0
89 -10 0
-89 9 10 0
90 -11 0
90 -12 0
-90 11 12 0
91 -13 0
91 -14 0
-91 13 14 0
92 -15 0
92 -16 0
-92 15 16 0
93 -17 0
93 -18 0
-93 17 18 0
94 -19 0
94 -20 0
-94 19 20 0
95 -21 0
95 -22 0
-95 21 22 0
96 -23 0
96 -24 0
-96 23 24 0
97 -25 0
97 -26 0
-97 25 26 0
98 -27 0
98 -28 0
-98 27 28 0
-99 85 0
-99 86 0
-99 87 0
-99 88 0
-99 89 0
-99 90 0
-99 91 0
-99 92 0
-99 93 0
-99 94 0
-99 95 0
-99 96 0
-99 97 0
-99 98 0
99 -85 -86 -87 -88 -89 -90 -91 -92 -93 -94 -95 -96 -97 -98 0
-99 0
100 -29 0
100 -37 0
100 -45 0
100 -53 0
100 -61 0
100 -69 0
100 -77 0
-100 29 37 45 53 61 69 77 0
101 -30 0
101 -38 0
101 -46 0
101 -54 0
101 -62 0
101 -70 0
101 -78 0
-101 30 38 46 54 62 70 78 0
102 -31 0
102 -39 0
102 -47 0
102 -55 0
102 -63 0
102 -71 0
102 -79 0
-102 31 39 47 55 63 71 79 0
103 -32 0
103 -40 0
103 -48 0
103 -56 0
103 -64 0
103 -72 0
103 -80 0
-103 32 40 48 56 64 72 80 0
104 -33 0
104 -41 0
104 -49 0
104 -57 0
104 -65 0
104 -73 0
104 -81 0
-104 33 41 49 57 65 73 81 0
105 -34 0
105 -42 0
105 -50 0
105 -58 0
105 -66 0
105 -74 0
105 -82 0
-105 34 42 50 58 66 74 82 0
106 -35 0
106 -43 0
106 -51 0
106 -59 0
106 -67 0
106 -75 0
106 -83 0
-106 35 43 51 59 67 75 83 0
107 -36 0
107 -44 0
107 -52 0
107 -60 0
107 -68 0
107 -76 0
107 -84 0
-107 36 44 52 60 68 76 84 0
108 29 0
108 30 0
-108 -29 -30 0
109 29 0
109 31 0
-109 -29 -31 0
110 29 0
110 32 0
-110 -29 -32 0
111 29 0
111 33 0
-111 -29 -33 0
112 29 0
112 34 0
-112 -29 -34 0
113 29 0
113 35 0
-113 -29 -35 0
114 29 0
114 36 0
-114 -29 -36 0
115 30 0
115 31 0
-115 -30 -31 0
116 30 0
116 32 0
-116 -30 -32 0
117 30 0
117 33 0
-117 -30 -33 0
118 30 0
118 34 0
-118 -30 -34 0
119 30 0
119 35 0
-119 -30 -35 0
120 30 0
120 36 0
-120 -30 -36 0
121 31 0
121 32 0
-121 -31 -32 0
122 31 0
122 33 0
-122 -31 -33 0
123 31 0
123 34 0
-123 -31 -34 0
124 31 0
124 35 0
-124 -31 -35 0
125 31 0
125 36 0
-125 -31 -36 0
126 32 0
126 33 0
-126 -32 -33 0
127 32 0
127 34 0
-127 -32 -34 0
128 32 0
128 35 0
-128 -32 -35 0
129 32 0
129 36 0
-129 -32 -36 0
130 33 0
130 34 0
-130 -33 -34 0
131 33 0
131 35 0
-131 -33 -35 0
132 33 0
132 36 0
-132 -33 -36 0
133 34 0
133 35 0
-133 -34 -35 0
134 34 0
134 36 0
-134 -34 -36 0
135 35 0
135 36 0
-135 -35 -36 0
136 37 0
136 38 0
-136 -37 -38 0
137 37 0
137 39 0
-137 -37 -39 0
138 37 0
138 40 0
-138 -37 -40 0
139 37 0
139 41 0
-139 -37 -41 0
140 37 0
140 42 0
-140 -37 -42 0
141 37 0
141 43 0
-141 -37 -43 0
142 37 0
142 44 0
-142 -37 -44 0
143 38 0
143 39 0
-143 -38 -39 0
144 38 0
144 40 0
-144 -38 -40 0
145 38 0
145 41 0
-145 -38 -41 0
146 38 0
146 42 0
-146 -38 -42 0
147 38 0
147 43 0
-147 -38 -43 0
148 38 0
148 44 0
-148 -38 -44 0
149 39 0
149 40 0
-149 -39 -40 0
150 39 0
150 41 0
-150 -39 -41 0
151 39 0
151 42 0
-151 -39 -42 0
152 39 0
152 43 0
-152 -39 -43 0
153 39 0
153 44 0
-153 -39 -44 0
154 40 0
154 41 0
-154 -40 -41 0
155 40 0
155 42 0
-155 -40 -42 0
156 40 0
156 43 0
-156 -40 -43 0
157 40 0
157 44 0
-157 -40 -44 0
158 41 0
158 42 0
-158 -41 -42 0
159 41 0
159 43 0
-159 -41 -43 0
160 41 0
160 44 0
-160 -41 -44 0
161 42 0
161 43 0
-161 -42 -43 0
162 42 0
162 44 0
-162 -42 -44 0
163 43 0
163 44 0
-163 -43 -44 0
164 45 0
164 46 0
-164 -45 -46 0
165 45 0
165 47 0
-165 -45 -47 0
166 45 0
166 48 0
-166 -45 -48 0
167 45 0
167 49 0
-167 -45 -49 0
168 45 0
168 50 0
-168 -45 -50 0
169 45 0
169 51 0
-169 -45 -51 0
170 45 0
170 52 0
-170 -45 -52 0
171 46 0
171 47 0
-171 -46 -47 0
172 46 0
172 48 0
-172 -46 -48 0
173 46 0
173 49 0
-173 -46 -49 0
174 46 0
174 50 0
-174 -46 -50 0
175 46 0
175 51 0
-175 -46 -51 0
176 46 0
176 52 0
-176 -46 -52 0
177 47 0
177 48 0
-177 -47 -48 0
178 47 0
178 49 0
-178 -47 -49 0
179 47 0
179 50 0
-179 -47 -50 0
180 47 0
180 51 0
-180 -47 -51 0
181 47 0
181 52 0
-181 -47 -52 0
182 48 0
182 49 0
-182 -48 -49 0
183 48 0
183 50 0
-183 -48 -50 0
184 48 0
184 51 0
-184 -48 -51 0
185 48 0
185 52 0
-185 -48 -52 0
186 49 0
186 50 0
-186 -49 -50 0
187 49 0
187 51 0
-187 -49 -51 0
188 49 0
188 52 0
-188 -49 -52 0
189 50 0
189 51 0
-189 -50 -51 0
190 50 0
190 52 0
-190 -50 -52 0
191 51 0
191 52 0
-191 -51 -52 0
192 53 0
192 54 0
-192 -53 -54 0
193 53 0
193 55 0
-193 -53 -55 0
194 53 0
194 56 0
-194 -53 -56 0
195 53 0
195 57 0
-195 -53 -57 0
196 53 0
196 58 0
-196 -53 -58 0
197 53 0
197 59 0
-197 -53 -59 0
198 53 0
198 60 0
-198 -53 -60 0
199 54 0
199 55 0
-199 -54 -55 0
200 54 0
200 56 0
-200 -54 -56 0
201 54 0
201 57 0
-201 -54 -57 0
202 54 0
202 58 0
-202 -54 -58 0
203 54 0
203 59 0
-203 -54 -59 0
204 54 0
204 60 0
-204 -54 -60 0
205 55 0
205 56 0
-205 -55 -56 0
206 55 0
206 57 0
-206 -55 -57 0
207 55 0
207 58 0
-207 -55 -58 0
208 55 0
208 59 0
-208 -55 -59 0
209 55 0
209 60 0
-209 -55 -60 0
210 56 0
210 57 0
-210 -56 -57 0
211 56 0
211 58 0
-211 -56 -58 0
212 56 0
212 59 0
-212 -56 -59 0
213 56 0
213 60 0
-213 -56 -60 0
214 57 0
214 58 0
-214 -57 -58 0
215 57 0
215 59 0
-215 -57 -59 0
216 57 0
216 60 0
-216 -57 -60 0
217 58 0
217 59 0
-217 -58 -59 0
218 58 0
218 60 0
-218 -58 -60 0
219 59 0
219 60 0
-219 -59 -60 0
220 61 0
220 62 0
-220 -61 -62 0
221 61 0
221 63 0
-221 -61 -63 0
222 61 0
222 64 0
-222 -61 -64 0
223 61 0
223 65 0
-223 -61 -65 0
224 61 0
224 66 0
-224 -61 -66 0
225 61 0
225 67 0
-225 -61 -67 0
226 61 0
226 68 0
-226 -61 -68 0
227 62 0
227 63 0
-227 -62 -63 0
228 62 0
228 64 0
-228 -62 -64 0
229 62 0
229 65 0
-229 -62 -65 0
230 62 0
230 66 0
-230 -62 -66 0
231 62 0
231 67 0
-231 -62 -67 0
232 62 0
232 68 0
-232 -62 -68 0
233 63 0
233 64 0
-233 -63 -64 0
234 63 0
234 65 0
-234 -63 -65 0
235 63 0
235 66 0
-235 -63 -66 0
236 63 0
236 67 0
-236 -63 -67 0
237 63 0
237 68 0
-237 -63 -68 0
238 64 0
238 65 0
-238 -64 -65 0
239 64 0
239 66 0
-239 -64 -66 0
240 64 0
240 67 0
-240 -64 -67 0
241 64 0
241 68 0
-241 -64 -68 0
242 65 0
242 66 0
-242 -65 -66 0
243 65 0
243 67 0
-243 -65 -67 0
244 65 0
244 68 0
-244 -65 -68 0
245 66 0
245 67 0
-245 -66 -67 0
246 66 0
246 68 0
-246 -66 -68 0
247 67 0
247 68 0
-247 -67 -68 0
248 69 0
248 70 0
-248 -69 -70 0
249 69 0
249 71 0
-249 -69 -71 0
250 69 0
250 72 0
-250 -69 -72 0
251 69 0
251 73 0
-251 -69 -73 0
252 69 0
252 74 0
-252 -69 -74 0
253 69 0
253 75 0
-253 -69 -75 0
254 69 0
254 76 0
-254 -69 -76 0
255 70 0
255 71 0
-255 -70 -71 0
256 70 0
256 72 0
-256 -70 -72 0
257 70 0
257 73 0
-257 -70 -73 0
258 70 0
258 74 0
-258 -70 -74 0
259 70 0
259 75 0
-259 -70 -75 0
260 70 0
260 76 0
-260 -70 -76 0
261 71 0
261 72 0
-261 -71 -72 0
262 71 0
262 73 0
-262 -71 -73 0
263 71 0
263 74 0
-263 -71 -74 0
264 71 0
264 75 0
-264 -71 -75 0
265 71 0
265 76 0
-265 -71 -76 0
266 72 0
266 73 0
-266 -72 -73 0
267 72 0
267 74 0
-267 -72 -74 0
268 72 0
268 75 0
-268 -72 -75 0
269 72 0
269 76 0
-269 -72 -76 0
270 73 0
270 74 0
-270 -73 -74 0
271 73 0
271 75 0
-271 -73 -75 0
272 73 0
272 76 0
-272 -73 -76 0
273 74 0
273 75 0
-273 -74 -75 0
274 74 0
274 76 0
-274 -74 -76 0
275 75 0
275 76 0
-275 -75 -76 0
276 77 0
276 78 0
-276 -77 -78 0
277 77 0
277 79 0
-277 -77 -79 0
278 77 0
278 80 0
-278 -77 -80 0
279 77 0
279 81 0
-279 -77 -81 0
280 77 0
280 82 0
-280 -77 -82 0
281 77 0
281 83 0
-281 -77 -83 0
282 77 0
282 84 0
-282 -77 -84 0
283 78 0
283 79 0
-283 -78 -79 0
284 78 0
284 80 0
-284 -78 -80 0
285 78 0
285 81 0
-285 -78 -81 0
286 78 0
286 82 0
-286 -78 -82 0
287 78 0
287 83 0
-287 -78 -83 0
288 78 0
288 84 0
-288 -78 -84 0
289 79 0
289 80 0
-289 -79 -80 0
290 79 0
290 81 0
-290 -79 -81 0
291 79 0
291 82 0
-291 -79 -82 0
292 79 0
292 83 0
-292 -79 -83 0
293 79 0
293 84 0
-293 -79 -84 0
294 80 0
294 81 0
-294 -80 -81 0
295 80 0
295 82 0
-295 -80 -82 0
296 80 0
296 83 0
-296 -80 -83 0
297 80 0
297 84 0
-297 -80 -84 0
298 81 0
298 82 0
-298 -81 -82 0
299 81 0
299 83 0
-299 -81 -83 0
300 81 0
300 84 0
-300 -81 -84 0
301 82 0
301 83 0
-301 -82 -83 0
302 82 0
302 84 0
-302 -82 -84 0
303 83 0
303 84 0
-303 -83 -84 0
-304 100 0
-304 101 0
-304 102 0
-304 103 0
-304 104 0
-304 105 0
-304 106 0
-304 107 0
-304 108 0
-304 109 0
-304 110 0
-304 111 0
-304 112 0
-304 113 0
-304 114 0
-304 115 0
-304 116 0
-304 117 0
-304 118 0
-304 119 0
-304 120 0
-304 121 0
-304 122 0
-304 123 0
-304 124 0
-304 125 0
-304 126 0
-304 127 0
-304 128 0
-304 129 0
-304 130 0
-304 131 0
-304 132 0
-304 133 0
-304 134 0
-304 135 0
-304 136 0
-304 137 0
-304 138 0
-304 139 0
-304 140 0
-304 141 0
-304 142 0
-304 143 0
-304 144 0
-304 145 0
-304 146 0
-304 147 0
-304 148 0
-304 149 0
-304 150 0
-304 151 0
-304 152 0
-304 153 0
-304 154 0
-304 155 0
-304 156 0
-304 157 0
-304 158 0
-304 159 0
-304 160 0
-304 161 0
-304 162 0
-304 163 0
-304 164 0
-304 165 0
-304 166 0
-304 167 0
-304 168 0
-304 169 0
-304 170 0
-304 171 0
-304 172 0
-304 173 0
-304 174 0
-304 175 0
-304 176 0
-304 177 0
-304 178 0
-304 179 0
-304 180 0
-304 181 0
-304 182 0
-304 183 0
-304 184 0
-304 185 0
-304 186 0
-304 187 0
-304 188 0
-304 189 0
-304 190 0
-304 191 0
-304 192 0
-304 193 0
-304 194 0
-304 195 0
-304 196 0
-304 197 0
-304 198 0
-304 199 0
-304 200 0
-304 201 0
-304 202 0
-304 203 0
-304 204 0
-304 205 0
-304 206 0
-304 207 0
-304 208 0
-304 209 0
-304 210 0
-304 211 0
-304 212 0
-304 213 0
-304 214 0
-304 215 0
-304 216 0
-304 217 0
-304 218 0
-304 219 0
-304 220 0
-304 221 0
-304 222 0
-304 223 0
-304 224 0
-304 225 0
-304 226 0
-304 227 0
-304 228 0
-304 229 0
-304 230 0
-304 231 0
-304 232 0
-304 233 0
-304 234 0
-304 235 0
-304 236 0
-304 237 0
-304 238 0
-304 239 0
-304 240 0
-304 241 0
-304 242 0
-304 243 0
-304 244 0
-304 245 0
-304 246 0
-304 247 0
-304 248 0
-304 249 0
-304 250 0
-304 251 0
-304 252 0
-304 253 0
-304 254 0
-304 255 0
-304 256 0
-304 257 0
-304 258 0
-304 259 0
-304 260 0
-304 261 0
-304 262 0
-304 263 0
-304 264 0
-304 265 0
-304 266 0
-304 267 0
-304 268 0
-304 269 0
-304 270 0
-304 271 0
-304 272 0
-304 273 0
-304 274 0
-304 275 0
-304 276 0
-304 277 0
-304 278 0
-304 279 0
-304 280 0
-304 281 0
-304 282 0
-304 283 0
-304 284 0
-304 285 0
-304 286 0
-304 287 0
-304 288 0
-304 289 0
-304 290 0
-304 291 0
-304 292 0
-304 293 0
-304 294 0
-304 295 0
-304 296 0
-304 297 0
-304 298 0
-304 299 0
-304 300 0
-304 301 0
-304 302 0
-304 303 0
304 -100 -101 -102 -103 -104 -105 -106 -107 -108 -109 -110 -111 -112 -113 -114 -115 -116 -117 -118 -119 -120 -121 -122 -123 -124 -125 -126 -127 -128 -129 -130 -131 -132 -133 -134 -135 -136 -137 -138 -139 -140 -141 -142 -143 -144 -145 -146 -147 -148 -149 -150 -151 -152 -153 -154 -155 -156 -157 -158 -159 -160 -161 -162 -163 -164 -165 -166 -167 -168 -169 -170 -171 -172 -173 -174 -175 -176 -177 -178 -179 -180 -181 -182 -183 -184 -185 -186 -187 -188 -189 -190 -191 -192 -193 -194 -195 -196 -197 -198 -199 -200 -201 -202 -203 -204 -205 -206 -207 -208 -209 -210 -211 -212 -213 -214 -215 -216 -217 -218 -219 -220 -221 -222 -223 -224 -225 -226 -227 -228 -229 -230 -231 -232 -233 -234 -235 -236 -237 -238 -239 -240 -241 -242 -243 -244 -245 -246 -247 -248 -249 -250 -251 -252 -253 -254 -255 -256 -257 -258 -259 -260 -261 -262 -263 -264 -265 -266 -267 -268 -269 -270 -271 -272 -273 -274 -275 -276 -277 -278 -279 -280 -281 -282 -283 -284 -285 -286 -287 -288 -289 -290 -291 -292 -293 -294 -295 -296 -297 -298 -299 -300 -301 -302 -303 0
-304 0
